Version identifier: 22.1.1.0 | 2022-11-28 | 9160aff4d
CPXPARAM_Read_DataCheck                          1
CPXPARAM_MIP_Strategy_VariableSelect             3
CPXPARAM_MIP_Cuts_FlowCovers                     1
CPXPARAM_MIP_Cuts_Implied                        1
CPXPARAM_MIP_Cuts_Gomory                         1
CPXPARAM_MIP_Cuts_MIRCut                         1
CPXPARAM_MIP_Strategy_Search                     1
CPXPARAM_MIP_Strategy_HeuristicFreq              10
CPXPARAM_MIP_Tolerances_MIPGap                   0.0050000000000000001
Tried aggregator 2 times.
MIP Presolve eliminated 65 rows and 157 columns.
MIP Presolve added 18 rows and 0 columns.
MIP Presolve modified 2918 coefficients.
Aggregator did 8 substitutions.
Reduced MIP has 678 rows, 843 columns, and 4056 nonzeros.
Reduced MIP has 819 binaries, 0 generals, 0 SOSs, and 0 indicators.
Presolve time = 0.00 sec. (5.86 ticks)
Found incumbent of value 1279.000000 after 0.01 sec. (9.73 ticks)
Probing time = 0.00 sec. (2.74 ticks)
Tried aggregator 1 time.
Detecting symmetries...
Reduced MIP has 678 rows, 843 columns, and 4056 nonzeros.
Reduced MIP has 819 binaries, 0 generals, 0 SOSs, and 0 indicators.
Presolve time = 0.00 sec. (2.64 ticks)
Probing time = 0.00 sec. (2.71 ticks)
Clique table members: 2423.
MIP emphasis: balance optimality and feasibility.
MIP search method: traditional branch-and-cut.
Parallel mode: deterministic, using up to 12 threads.
Root relaxation solution time = 0.00 sec. (2.83 ticks)

        Nodes                                         Cuts/
   Node  Left     Objective  IInf  Best Integer    Best Bound    ItCnt     Gap         Variable B NodeID Parent  Depth

*     0+    0                         1279.0000        0.0000           100.00%
*     0+    0                         1009.0000        0.0000           100.00%
      0     0      124.1000    52     1009.0000      124.1000      116   87.70%
      0     0      142.7000    39     1009.0000      Cuts: 65      187   85.86%
      0     0      144.3000    54     1009.0000      Cuts: 59      229   85.70%
      0     0      144.8000    49     1009.0000      Cuts: 76      258   85.65%
      0     0      145.0421    44     1009.0000      Cuts: 37      297   85.63%
      0     0      145.2421    35     1009.0000      Cuts: 14      304   85.61%
Detecting symmetries...
      0     0      145.2421    35     1009.0000     Covers: 1      306   85.61%
      0     0      145.2421    35     1009.0000     Covers: 1      321   85.61%
*     0+    0                          163.0000      145.2421            10.89%
Detecting symmetries...

Repeating presolve.
Tried aggregator 1 time.
MIP Presolve eliminated 411 rows and 440 columns.
Reduced MIP has 267 rows, 403 columns, and 1487 nonzeros.
Reduced MIP has 379 binaries, 0 generals, 0 SOSs, and 0 indicators.
Presolve time = 0.00 sec. (1.17 ticks)
Probing time = 0.00 sec. (1.13 ticks)
Cover probing fixed 0 vars, tightened 15 bounds.
Tried aggregator 1 time.
Detecting symmetries...
MIP Presolve modified 160 coefficients.
Reduced MIP has 267 rows, 403 columns, and 1487 nonzeros.
Reduced MIP has 379 binaries, 0 generals, 0 SOSs, and 0 indicators.
Presolve time = 0.00 sec. (1.09 ticks)
Represolve time = 0.01 sec. (4.96 ticks)
Probing time = 0.00 sec. (1.12 ticks)
Clique table members: 1053.
MIP emphasis: balance optimality and feasibility.
MIP search method: traditional branch-and-cut.
Parallel mode: deterministic, using up to 12 threads.
Root relaxation solution time = 0.00 sec. (3.10 ticks)

        Nodes                                         Cuts/
   Node  Left     Objective  IInf  Best Integer    Best Bound    ItCnt     Gap         Variable B NodeID Parent  Depth

*     0+    0                          163.0000      145.2421            10.89%
      0     0      145.2428    35      163.0000      145.2428      514   10.89%
      0     0      145.4000    35      163.0000      Cuts: 52      537   10.80%
      0     0      145.5464    49      163.0000      Cuts: 30      557   10.71%
      0     0      145.8419    63      163.0000      Cuts: 35      575   10.53%
      0     0      146.4612    67      163.0000      Cuts: 30      592   10.15%
      0     0      146.6000    51      163.0000      Cuts: 24      616   10.06%
Detecting symmetries...
      0     0      146.7333    64      163.0000      Cuts: 29      643    9.98%
      0     0      147.0039    75      163.0000      Cuts: 23      694    9.81%
      0     0      147.1786    68      163.0000      Cuts: 70      762    9.71%
      0     0      147.3750    63      163.0000      Cuts: 34      807    9.59%
      0     0      147.4146    64      163.0000      Cuts: 26      837    9.56%
      0     0      147.5000    60      163.0000      Cuts: 11      849    9.51%
      0     0      147.7857    71      163.0000      Cuts: 16      869    9.33%
      0     0      148.1333    69      163.0000      Cuts: 25      894    9.12%
      0     0      148.4427    76      163.0000      Cuts: 30      929    8.93%
      0     0      148.6226    87      163.0000      Cuts: 19      950    8.82%
      0     0      148.6667    56      163.0000      Cuts: 19      960    8.79%
      0     0      148.7000    80      163.0000      Cuts: 24      973    8.77%
      0     0      148.8113    89      163.0000      Cuts: 16      987    8.70%
      0     0      149.0233    79      163.0000      Cuts: 30     1022    8.57%
      0     0      149.1347    87      163.0000      Cuts: 12     1046    8.51%
      0     0      149.2471    89      163.0000      Cuts: 13     1066    8.44%
      0     0      149.4328    81      163.0000       Cuts: 6     1096    8.32%
      0     0      149.4857    91      163.0000      Cuts: 21     1119    8.29%
      0     0      149.5000    61      163.0000    MIRcuts: 9     1132    8.28%
      0     0      149.5000    69      163.0000      Cuts: 16     1148    8.28%
*     0+    0                          155.0000      149.5000             3.55%
      0     0        cutoff            155.0000      155.0000     1165    0.00%                        0             0
Elapsed time = 0.28 sec. (211.74 ticks, tree = 0.01 MB, solutions = 4)

GUB cover cuts applied:  1
Clique cuts applied:  7
Cover cuts applied:  42
Implied bound cuts applied:  9
Flow cuts applied:  0
Mixed integer rounding cuts applied:  33
Zero-half cuts applied:  23
Gomory fractional cuts applied:  5

Root node processing (before b&c):
  Real time             =    0.28 sec. (211.80 ticks)
Parallel b&c, 12 threads:
  Real time             =    0.00 sec. (0.00 ticks)
  Sync time (average)   =    0.00 sec.
  Wait time (average)   =    0.00 sec.
                          ------------
Total (root+branch&cut) =    0.28 sec. (211.80 ticks)
